solution/p_4_8.txt_600.row.log
CPXPARAM_TimeLimit                               600
CPXPARAM_WorkMem                                 4096
CPXPARAM_Threads                                 1
Found incumbent of value 0,000000 after 0,00 sec. (0,01 ticks)
Tried aggregator 1 time.
MIP Presolve eliminated 19 rows and 52 columns.
Reduced MIP has 17 rows, 48 columns, and 77 nonzeros.
Reduced MIP has 48 binaries, 0 generals, 0 SOSs, and 0 indicators.
Presolve time = 0,00 sec. (0,23 ticks)
Probing time = 0,00 sec. (0,02 ticks)
Tried aggregator 1 time.
MIP Presolve eliminated 14 rows and 36 columns.
MIP Presolve added 1 rows and 1 columns.
Reduced MIP has 4 rows, 13 columns, and 21 nonzeros.
Reduced MIP has 13 binaries, 0 generals, 0 SOSs, and 0 indicators.
Presolve time = 0,00 sec. (0,03 ticks)
Probing time = 0,00 sec. (0,00 ticks)
Tried aggregator 1 time.
MIP Presolve eliminated 1 rows and 1 columns.
MIP Presolve added 1 rows and 1 columns.
Reduced MIP has 4 rows, 13 columns, and 21 nonzeros.
Reduced MIP has 13 binaries, 0 generals, 0 SOSs, and 0 indicators.
Presolve time = 0,00 sec. (0,02 ticks)
Probing time = 0,00 sec. (0,00 ticks)
Clique table members: 4.
MIP emphasis: balance optimality and feasibility.
MIP search method: dynamic search.
Parallel mode: none, using 1 thread.
Root relaxation solution time = 0,00 sec. (0,01 ticks)

        Nodes                                         Cuts/
   Node  Left     Objective  IInf  Best Integer    Best Bound    ItCnt     Gap

*     0+    0                          220,0000      396,0000            80,00%
      0     0      320,8667     1      220,0000      320,8667        2   45,85%
*     0+    0                          317,0000      320,8667             1,22%
      0     0      318,4000     1      317,0000       Cuts: 2        5    0,44%
      0     0        cutoff            317,0000                      6     --- 
Elapsed time = 0,01 sec. (3,39 ticks, tree = 0,01 MB, solutions = 3)

GUB cover cuts applied:  1
Gomory fractional cuts applied:  1

Root node processing (before b&c):
  Real time             =    0,01 sec. (3,39 ticks)
Sequential b&c:
  Real time             =    0,00 sec. (0,00 ticks)
                          ------------
Total (root+branch&cut) =    0,01 sec. (3,39 ticks)
